; benchmark generated from python API
(set-info :status unknown)
(declare-fun S_2 () Real)
(declare-fun S_4 () Real)
(declare-fun C () Real)
(declare-fun S_3 () Real)
(declare-fun S_5 () Real)
(declare-fun L_0 () Real)
(declare-fun A_1 () Real)
(declare-fun S_1 () Real)
(declare-fun A_0 () Real)
(declare-fun S_0 () Real)
(declare-fun A_3 () Real)
(declare-fun A_2 () Real)
(declare-fun A_5 () Real)
(declare-fun A_4 () Real)
(assert
 (let (($x39 (>= L_0 0.0)))
 (let (($x668 (>= C 5.0)))
 (let ((?x12399 (* (/ 1.0 2.0) S_0)))
 (let ((?x519 (* (- 1.0) S_4)))
 (let ((?x10904 (* (/ 1.0 2.0) S_5)))
 (let ((?x11767 (* (- (/ 1.0 2.0)) A_1)))
 (let ((?x11854 (* (/ 1.0 2.0) A_3)))
 (let ((?x18881 (* (- (/ 1.0 2.0)) A_5)))
 (let ((?x11290 (* (/ 1.0 2.0) A_4)))
 (let (($x2200 (<= (+ (* 3.0 C) ?x519 S_0) 0.0)))
 (let ((?x561 (* (- 1.0) C)))
 (let ((?x496 (* (- 1.0) A_2)))
 (let ((?x1113 (+ A_3 ?x496 ?x561)))
 (let (($x1114 (<= ?x1113 0.0)))
 (let (($x1130 (not $x1114)))
 (let (($x1112 (<= (+ A_2 (* (- 1.0) A_1) ?x561) 0.0)))
 (let (($x1129 (not $x1112)))
 (let (($x1089 (<= (+ A_3 (* (- 1.0) L_0) ?x519) 0.0)))
 (let (($x45364 (or $x1089 $x1129 $x1130 $x2200 (<= (+ ?x11290 ?x18881 ?x11854 ?x11767 ?x10904 ?x519 ?x12399) 0.0))))
 (let ((?x4918 (* (- 2.0) S_3)))
 (let ((?x500 (* (- 1.0) A_1)))
 (let ((?x32812 (* 2.0 A_2)))
 (let ((?x492 (* (- 1.0) A_3)))
 (let ((?x484 (* (- 1.0) A_5)))
 (let (($x5150 (<= (+ A_1 C (* (- 1.0) L_0) (* (- 1.0) S_3)) 0.0)))
 (let (($x2376 (<= (+ (* 2.0 C) (* (- 1.0) S_3) S_0) 0.0)))
 (let (($x1095 (<= (+ A_2 (* (- 1.0) L_0) (* (- 1.0) S_3)) 0.0)))
 (let (($x51635 (or $x1095 $x2376 $x5150 (<= (+ A_4 ?x484 ?x492 ?x32812 ?x500 S_5 ?x4918 S_0) 0.0))))
 (let (($x29128 (<= (+ A_4 ?x484 A_3 ?x500 S_5 ?x561 (* (- 2.0) S_4) S_1) 0.0)))
 (let (($x2258 (<= (+ (* 2.0 C) ?x519 S_1) 0.0)))
 (let ((?x7151 (* (- 2.0) S_4)))
 (let ((?x1125 (* (- 2.0) C)))
 (let ((?x11716 (* (- (/ 1.0 2.0)) C)))
 (let ((?x11234 (* (- (/ 1.0 2.0)) A_2)))
 (let (($x21567 (<= (+ ?x11290 ?x18881 ?x11854 ?x11234 ?x10904 ?x11716 ?x519 (* (/ 1.0 2.0) S_2)) 0.0)))
 (let (($x2012 (<= (+ C ?x519 S_2) 0.0)))
 (let (($x93412 (or $x1089 $x2012 $x21567 (<= (+ A_4 ?x484 A_3 ?x500 S_5 ?x1125 ?x7151 S_2) 0.0))))
 (let (($x45874 (<= (+ A_4 ?x500 (* (- 1.0) S_5) S_1) (- 5.0))))
 (let (($x2110 (<= (+ (* (- 1.0) S_5) (* 3.0 C) S_1) 0.0)))
 (let (($x1116 (<= (+ A_4 ?x492 ?x561) 0.0)))
 (let (($x1131 (not $x1116)))
 (let (($x1083 (<= (+ A_4 (* (- 1.0) S_5) (* (- 1.0) L_0)) 0.0)))
 (let (($x47922 (<= (+ A_4 ?x500 (* (- 1.0) S_5) ?x1125 S_3) (- 5.0))))
 (let ((?x508 (* (- 1.0) S_5)))
 (let ((?x7143 (+ A_4 ?x492 ?x508 S_3)))
 (let (($x46028 (<= ?x7143 (- 5.0))))
 (let (($x1622 (<= (+ ?x508 C S_3) 0.0)))
 (let (($x4007 (<= (+ A_2 C (* (- 1.0) L_0) ?x519) 0.0)))
 (let (($x94328 (or $x1114 $x2258 $x4007 (<= (+ ?x484 A_3 A_2 ?x500 S_5 C ?x7151 S_1) 0.0))))
 (let (($x4647 (<= (+ A_1 (* 2.0 C) (* (- 1.0) L_0) ?x519) 0.0)))
 (let (($x57949 (or $x1114 $x2200 $x4007 $x4647 (<= (+ ?x18881 ?x11854 (* (/ 1.0 2.0) A_2) ?x11767 ?x10904 C ?x519 ?x12399) 0.0))))
 (let (($x20222 (<= (+ ?x18881 ?x11854 (* (/ 1.0 2.0) A_2) ?x11767 ?x10904 (* (- 1.0) S_3) ?x12399) 0.0)))
 (let (($x3567 (<= (+ ?x492 A_2 S_5 ?x1125 (* (- 1.0) S_3)) 0.0)))
 (let (($x2322 (<= (+ C (* (- 1.0) S_3) S_1) 0.0)))
 (let (($x96561 (or $x1095 $x2322 (<= (+ A_4 ?x484 ?x492 ?x32812 ?x500 S_5 ?x561 ?x4918 S_1) 0.0))))
 (let (($x96552 (or $x1095 $x2322 (<= (+ ?x484 A_3 A_2 ?x500 S_5 ?x561 ?x4918 S_1) 0.0))))
 (let (($x5323 (<= (+ (* (- 1.0) A_4) A_3 S_5 ?x561 ?x519) 0.0)))
 (let (($x96535 (or $x1114 $x2200 $x4007 $x4647 (<= (+ A_4 ?x484 A_2 ?x500 S_5 C ?x7151 S_0) 0.0))))
 (let (($x93551 (or $x1095 $x2376 $x5150 (<= (+ A_4 ?x484 A_2 ?x500 S_5 ?x561 ?x4918 S_0) 0.0))))
 (let (($x2199 (<= (+ A_3 ?x508 C (* (- 1.0) L_0)) 0.0)))
 (let (($x1813 (<= (+ ?x508 (* 2.0 C) S_2) 0.0)))
 (let (($x56878 (or $x1116 $x1813 $x2199 (<= (+ A_3 ?x496 ?x508 C S_2) (- 5.0)) (<= (+ A_3 ?x500 ?x508 S_2) (- 5.0)))))
 (let (($x93634 (or $x1116 $x1129 $x1130 $x2110 $x2199 (<= (+ A_3 ?x500 ?x508 C S_1) (- 5.0)))))
 (let (($x45247 (<= (+ A_3 ?x496 (* 2.0 C) ?x519 S_0) (- 5.0))))
 (let (($x10188 (<= (+ ?x496 A_1 C) 0.0)))
 (let (($x10208 (not $x10188)))
 (let (($x93270 (or $x1089 $x2200 $x4647 $x10208 (not (<= 0.0 (+ A_3 ?x496 A_1 C (* (- 1.0) L_0) ?x519))) $x45247)))
 (let (($x10137 (<= (+ (* (- 1.0) A_4) A_2 S_5 ?x561 (* (- 1.0) S_3)) 0.0)))
 (let (($x11282 (<= (+ (* (- 1.0) A_4) A_2 S_4 (* (- 1.0) S_3)) 0.0)))
 (let (($x94874 (or $x1095 $x2376 (<= (+ (* (- 1.0) A_4) A_3 A_2 ?x500 S_4 ?x4918 S_0) 0.0) $x5150)))
 (let (($x45616 (<= 0.0 (+ (* (- 1.0) A_4) A_2 S_5 (* (- 1.0) S_2)))))
 (let (($x10488 (<= (+ A_4 ?x492 ?x496 A_1 ?x508 (* 2.0 S_2) (* (- 1.0) S_1)) 0.0)))
 (let ((?x4746 (* 2.0 S_3)))
 (let ((?x1106 (* (- 1.0) A_0)))
 (let ((?x16995 (+ A_4 ?x496 ?x508 ?x561 S_3)))
 (let (($x16987 (<= ?x16995 0.0)))
 (let (($x94391 (or $x1622 $x16987 (<= (+ A_4 ?x492 ?x496 A_1 ?x1106 ?x508 ?x1125 ?x4746 L_0) 0.0))))
 (let (($x46125 (<= (+ A_4 ?x492 ?x508 C S_2) (- 5.0))))
 (let (($x96010 (or $x1083 $x1131 $x1813 (<= (+ A_4 ?x496 ?x508 S_2) (- 5.0)) $x46125 (<= (+ A_4 ?x500 ?x508 ?x561 S_2) (- 5.0)))))
 (let ((?x1124 (* (- 1.0) S_0)))
 (let ((?x11878 (* 2.0 S_2)))
 (let (($x94906 (or $x1131 $x1813 (<= (+ A_4 ?x492 ?x496 A_1 ?x508 ?x561 ?x11878 ?x1124) 0.0) $x45616)))
 (let (($x94280 (or $x1131 $x1813 (<= (+ A_4 ?x492 ?x496 A_1 ?x1106 ?x508 ?x11878 L_0) 0.0) $x45616)))
 (let (($x94738 (or $x1114 $x2258 $x4007 (<= (+ (* (- 1.0) A_4) A_3 A_2 ?x500 S_5 ?x7151 S_1) 0.0))))
 (let (($x2461 (<= (+ ?x508 (* 4.0 C) S_0) 0.0)))
 (let (($x94251 (or $x1116 $x1129 $x1130 $x2199 $x2461 (<= (+ A_3 ?x500 ?x508 (* 2.0 C) S_0) (- 5.0)))))
 (let (($x3458 (<= (+ ?x492 A_2 ?x561 S_4 (* (- 1.0) S_3)) 0.0)))
 (let (($x5747 (<= (+ A_4 ?x484 A_3 ?x496 A_1 S_5 (* (- 1.0) L_0) ?x7151) 0.0)))
 (let (($x93807 (or $x1089 $x1112 $x2200 $x4647 $x5747 (<= (+ ?x11290 ?x18881 ?x11854 ?x11234 ?x10904 (* (/ 1.0 2.0) C) ?x519 ?x12399) 0.0))))
 (let (($x92809 (or $x1622 $x16987 (<= (+ A_4 ?x492 ?x496 A_1 ?x508 (* (- 3.0) C) ?x4746 ?x1124) 0.0))))
 (let (($x29166 (<= (+ A_4 ?x492 ?x496 A_1 ?x508 ?x1125 ?x4746 (* (- 1.0) S_1)) 0.0)))
 (let (($x27037 (<= (+ A_4 ?x492 ?x496 A_1 ?x508 ?x561 ?x4746 (* (- 1.0) S_2)) 0.0)))
 (let ((?x530 (* (- 1.0) S_3)))
 (let ((?x11286 (* (/ 1.0 2.0) A_2)))
 (let ((?x10751 (* (- (/ 1.0 2.0)) A_4)))
 (let (($x94334 (or $x1095 $x2376 $x5150 (<= (+ ?x10751 ?x11854 ?x11286 ?x11767 ?x10904 ?x11716 ?x530 ?x12399) 0.0))))
 (let (($x92663 (or $x1114 $x2258 $x4007 (<= (+ A_4 ?x484 A_2 ?x500 S_5 ?x7151 S_1) 0.0))))
 (let (($x46473 (<= (+ A_2 ?x500 ?x508 (* 3.0 C) S_0) (- 5.0))))
 (let (($x46249 (<= (+ A_4 ?x492 A_2 ?x508 C (* (- 1.0) L_0)) (- 5.0))))
 (let (($x46185 (<= (+ ?x11290 (* (- (/ 1.0 2.0)) A_3) ?x11286 ?x11767 (* (- (/ 1.0 2.0)) S_5) C ?x12399) (- 5.0))))
 (let (($x4322 (<= (+ A_2 ?x508 (* 2.0 C) (* (- 1.0) L_0)) 0.0)))
 (let (($x398 (<= (+ A_4 ?x492 ?x508 (* 3.0 C) S_0) (- 5.0))))
 (let (($x92988 (or $x398 $x1083 $x1129 $x1131 $x2461 $x4322 $x46185 $x46249 (<= (+ A_4 ?x500 ?x508 C S_0) (- 5.0)) $x46473)))
 (let ((?x11462 (* (/ 1.0 2.0) S_1)))
 (let ((?x9677 (* (/ 1.0 2.0) C)))
 (let ((?x11107 (* (- (/ 1.0 2.0)) S_5)))
 (let ((?x11146 (* (- (/ 1.0 2.0)) A_3)))
 (let ((?x907 (* 2.0 C)))
 (let ((?x6325 (+ A_4 ?x492 ?x508 ?x907 S_1)))
 (let (($x46034 (<= ?x6325 (- 5.0))))
 (let (($x92699 (or $x1083 $x1114 $x2110 $x4322 $x45874 $x46034 (<= (+ ?x11290 ?x11146 ?x11286 ?x11767 ?x11107 ?x9677 ?x11462) (- 5.0)) $x46249 (<= (+ A_2 ?x500 ?x508 ?x907 S_1) (- 5.0)))))
 (let (($x11628 (<= (+ (* (- 1.0) A_4) A_3 A_2 ?x500 S_5 ?x1125 ?x4918 S_1) 0.0)))
 (let (($x92905 (or $x1095 $x2322 (<= (+ ?x10751 ?x11854 ?x11286 ?x11767 ?x11716 (* (/ 1.0 2.0) S_4) ?x530 ?x11462) 0.0))))
 (let (($x94178 (or $x1095 $x2322 (<= (+ A_4 ?x484 A_2 ?x500 S_5 ?x1125 ?x4918 S_1) 0.0))))
 (let (($x93403 (or $x2200 $x4007 $x4647 $x5323 (<= (+ ?x10751 ?x11854 ?x11286 ?x11767 ?x10904 ?x9677 ?x519 ?x12399) 0.0))))
 (let (($x3974 (<= (+ A_1 ?x508 (* 3.0 C) (* (- 1.0) L_0)) 0.0)))
 (let (($x45900 (<= (+ A_4 ?x496 ?x508 ?x907 S_0) (- 5.0))))
 (let (($x44403 (<= (- 5.0) (+ ?x500 C S_0 L_0))))
 (let (($x45539 (not $x44403)))
 (let (($x95389 (or $x1083 $x1130 $x1131 $x2461 $x3974 $x45539 $x45900 (<= (+ A_4 ?x496 A_1 ?x508 C (* (- 1.0) L_0)) (- 5.0)))))
 (let (($x95853 (or $x1112 $x1130 $x1131 $x2461 (<= 0.0 (+ (* (- 1.0) A_4) A_2 ?x500 S_5 ?x561 L_0)) $x45900)))
 (let (($x45707 (<= (+ A_4 ?x496 ?x508 C S_1) (- 5.0))))
 (let (($x92893 (or $x1083 $x1112 $x2110 $x2199 (<= ?x6325 0.0) (<= (+ A_3 ?x496 ?x508 ?x907 S_1) (- 5.0)) $x45707)))
 (let (($x96672 (or $x1089 $x1112 $x2258 (<= (+ A_4 ?x484 A_3 ?x496 S_5 ?x7151 S_1) 0.0))))
 (let (($x47769 (or $x1089 $x1130 $x2258 (<= (+ A_3 ?x496 C ?x519 S_1) (- 5.0)) (<= (+ A_3 ?x500 ?x519 S_1) (- 5.0)))))
 (let (($x94165 (or $x1089 $x2012 (<= (+ A_3 ?x496 ?x519 S_2) (- 5.0)) (<= (+ A_3 ?x500 ?x561 ?x519 S_2) (- 5.0)))))
 (let (($x12576 (<= (+ (* (- 1.0) A_4) A_2 S_5 ?x519) 0.0)))
 (let (($x93822 (or $x1089 $x1130 $x2200 $x4647 (<= (+ A_3 ?x496 A_1 C (* (- 1.0) L_0) ?x519) (- 5.0)) $x45247 $x45539)))
 (let (($x386 (<= (+ A_3 ?x496 ?x508 (* 3.0 C) S_0) (- 5.0))))
 (let (($x93927 (or $x386 $x1116 $x1130 $x2199 $x2461 $x3974 (<= (+ A_3 ?x496 A_1 ?x508 ?x907 (* (- 1.0) L_0)) (- 5.0)) $x45539)))
 (let (($x95956 (or $x386 $x1112 $x1116 $x2461 $x3974 (<= 0.0 (+ ?x492 A_2 ?x500 S_5 ?x1125 L_0)))))
 (let (($x54458 (or $x398 $x1083 $x1112 $x1114 $x2461 $x3974 (<= (+ A_4 ?x492 A_1 ?x508 ?x907 (* (- 1.0) L_0)) (- 5.0)))))
 (let (($x3917 (or (<= (+ A_1 (* (- 1.0) L_0) (* (- 1.0) S_2)) 0.0) (<= (+ C (* (- 1.0) S_2) S_0) 0.0))))
 (let (($x128 (>= S_1 S_0)))
 (let (($x131 (>= S_2 S_1)))
 (let (($x134 (>= S_3 S_2)))
 (let (($x137 (>= S_4 S_3)))
 (let (($x140 (>= S_5 S_4)))
 (let (($x142 (>= A_1 A_0)))
 (let (($x143 (>= A_2 A_1)))
 (let (($x144 (>= A_3 A_2)))
 (let (($x145 (>= A_4 A_3)))
 (let (($x146 (>= A_5 A_4)))
 (and $x146 $x145 $x144 $x143 $x142 $x140 $x137 $x134 $x131 $x128 $x3917 (<= (+ ?x1125 S_1 ?x1124) 0.0) (<= (+ ?x1106 ?x561 S_1 L_0) 0.0) (or $x1095 $x2322 (<= (+ A_2 ?x500 ?x530 S_1) (- 5.0))) (<= (+ ?x500 (* (- 3.0) C) L_0 S_4) 0.0) (<= (+ ?x500 S_5 (* (- 4.0) C) L_0) 0.0) (or $x1112 $x1114 $x2258) (or $x1622 (<= ?x7143 0.0)) (<= (+ ?x484 S_5 L_0) 0.0) (<= (+ (* (- 1.0) A_4) S_5 ?x561 L_0) 0.0) (<= (+ S_5 (* (- 5.0) C) (* (- 1.0) S_1)) 0.0) (<= (+ (* (- 1.0) A_4) L_0 S_4) 0.0) (or $x2322 $x3458) (<= (+ ?x500 ?x561 L_0 S_2) 0.0) (or $x1095 $x2376 $x5150 (<= (+ A_2 ?x500 C ?x530 S_0) (- 5.0))) (<= (+ (* (- 3.0) C) S_2 ?x1124) 0.0) (<= (+ ?x496 ?x1125 L_0 S_4) 0.0) (<= (+ ?x496 ?x561 L_0 S_3) 0.0) (or $x398 $x1112 $x1114 $x2461 $x44403) $x54458 (or $x1112 $x1114 $x1083 $x2110 $x46034) $x95956 $x93927 (or $x1112 $x1083 $x1622 $x46028 (<= ?x16995 (- 5.0))) (<= (+ ?x492 S_5 ?x1125 L_0) 0.0) (or $x2376 $x3567 $x5150) (or $x2322 $x11282) (or $x2322 $x10137) (or $x1114 $x2258 $x12576) $x93822 (or $x2012 (<= (+ ?x484 A_3 S_5 ?x519) 0.0)) (<= (+ ?x492 ?x561 L_0 S_4) 0.0) (<= (+ (* (- 5.0) C) S_4 ?x1124) 0.0) (<= (+ ?x1106 S_5 (* (- 5.0) C) L_0) 0.0) (or $x1131 $x1813 $x45616 $x46125) (or $x1114 $x2200 $x44403 (<= (+ A_2 ?x500 ?x907 ?x519 S_0) (- 5.0))) (or $x1114 $x2200 $x4647 $x12576) (or $x2012 $x5323) (or $x2012 (<= (+ A_3 ?x496 ?x519 S_2) 0.0)) (or $x1114 $x2200 $x4007 $x4647 $x45539) $x94165 (<= (+ S_5 (* (- 6.0) C) ?x1124) 0.0) (or $x1130 $x2258 $x5323) $x47769 (<= (+ ?x496 S_5 (* (- 3.0) C) L_0) 0.0) (or $x1114 $x2258 $x4007 (<= (+ A_2 ?x500 C ?x519 S_1) (- 5.0))) $x96672 (or $x1083 $x1112 $x1130 $x2110 $x2199 $x45707 (<= ?x1113 (- 5.0))) (or $x1130 $x2258 (<= (+ ?x484 A_3 S_5 ?x519) 0.0)) (or $x1114 $x2200 $x4647 (<= (+ ?x484 A_2 S_5 C ?x519) 0.0)) (or $x1089 $x2012 $x10208 $x21567) $x92893 $x95853 $x95389 (or $x1114 $x1116 $x2461 $x3974 $x4322 $x46473) $x93403 (or $x1114 $x2258 (<= (+ ?x484 A_2 S_5 C ?x519) 0.0)) $x94178 (or $x1622 $x16987 $x46028) (or $x1083 $x1622 (not (<= 0.0 ?x1113)) $x46028 $x47922) $x92905 (or $x1095 $x2322 $x11628) $x92699 $x92988 $x92663 $x94334 (or $x1622 $x16987 $x27037) (or $x1622 $x16987 $x29166) $x92809 $x93807 (or $x1116 $x1813 (<= (+ A_3 ?x496 ?x508 C S_2) 0.0)) (or $x2376 $x3458 $x5150) $x94251 $x94738 $x94280 $x94906 $x96010 $x94391 (or $x1131 $x1813 $x10488 $x45616) $x94874 (or $x2376 $x5150 $x11282) (or $x2376 $x5150 $x10137) (or $x1089 $x1130 $x2200 $x10188 (<= (+ A_3 ?x500 C ?x519 S_0) (- 5.0))) $x93270 $x93634 $x56878 $x93551 (or $x1130 $x2200 $x4647 (<= (+ ?x484 A_3 S_5 ?x519) 0.0)) $x96535 (or $x2322 (<= (+ ?x484 A_2 S_5 ?x530) 0.0)) (or $x1130 $x2200 $x4647 $x5323) $x96552 $x96561 (or $x2322 $x3567) (or $x2376 $x5150 (<= (+ ?x484 A_2 S_5 ?x530) 0.0)) (or $x1095 $x2376 $x5150 $x20222) $x57949 $x94328 (or $x1083 $x1129 $x1622 $x46028 $x47922) (or $x1083 $x1129 $x1130 $x1131 $x2110 $x45874) $x93412 (or $x1089 $x1129 $x1130 $x2258 $x29128) $x51635 $x45364 $x668 $x39 (<= (+ ?x1106 L_0 S_0) 0.0) (<= (+ ?x500 L_0 S_1) 0.0) (<= (+ ?x496 L_0 S_2) 0.0) (<= (+ ?x492 L_0 S_3) 0.0) (<= (+ S_5 (* (- 3.0) C) ?x530) 0.0) (<= (+ S_5 (* (- 4.0) C) (* (- 1.0) S_2)) 0.0) (<= (+ ?x1125 S_3 (* (- 1.0) S_2)) 0.0) (<= (+ (* (- 3.0) C) S_3 (* (- 1.0) S_1)) 0.0) (<= (+ ?x1106 (* (- 3.0) C) S_3 L_0) 0.0) (<= (+ (* (- 4.0) C) S_3 ?x1124) 0.0) (<= (+ ?x1106 ?x1125 S_2 L_0) 0.0) (<= (+ ?x1125 S_2 (* (- 1.0) S_1)) 0.0) (<= (+ ?x1106 (* (- 4.0) C) S_4 L_0) 0.0) (<= (+ (* (- 4.0) C) S_4 (* (- 1.0) S_1)) 0.0) (<= (+ ?x500 ?x1125 L_0 S_3) 0.0) (<= (+ S_5 ?x1125 ?x519) 0.0) (<= (+ ?x1125 S_4 ?x530) 0.0) (<= (+ (* (- 3.0) C) S_4 (* (- 1.0) S_2)) 0.0))))))))))))))))))))))))))))))))))))))))))))))))))))))))))))))))))))))))))))))))))))))))))))))))))))))))))))))))))))))))))))))))))))))))))))))))))
(check-sat)
